165116
11,92,88,79,56,22,91,82,33,8,25,49,67,18,41,80,98,99,50,81,32,1,83,52,6,17,31,62,74,34,102,3,14,90,78,42,60,46,13,101,23,57,0,86,27,26,9,43,58,65,75,73,48,36,38,72,47,84,69,93,77,2,100,37,103,66,40,10,94,53,70,35,104,95,59,71,44,24,61,21,85,45,76,5,39,55,19,15,63,89,16,20,68,87,12,30,64,51,4,54,28,29,97,105,96,7,11
